myproject/instances/20nodes/rnd29_20.tsp
NAME : rnd29_20.tsp
TYPE : TSP
DIMENSION : 20
EDGE_WEIGHT_TYPE : EUC_2D
NODE_COORD_SECTION
1 445 683
2 960 381
3 413 979
4 532 119
5 185 562
6 824 42
7 196 761
8 9 424
9 310 837
10 636 715
11 456 439
12 164 916
13 988 838
14 339 806
15 59 437
16 247 530
17 132 874
18 18 88
19 24 111
20 28 200
