myproject/instances/20nodes/rnd29_20.opt.tour
NAME : rnd29_20.tsp.tsp.opt.tour
TYPE : TOUR
DIMENSION : 20
TOUR_SECTION
1
3
20
5
13
8
11
9
15
17
19
2
7
10
16
6
14
4
12
18
-1